(set-info :source  loris-7.ddns.comp.nus.edu.sg/~project/hip/) 
;Variables declarations
(declare-fun res () Int)
(declare-fun height_335_6497 () Int)
(declare-fun h_6493 () Int)
(declare-fun height_332_6359 () Int)
(declare-fun h_6356 () Int)
(declare-fun height_327_6331 () Int)
(declare-fun h_6328 () Int)
(declare-fun right_322_6303 () Int)
(declare-fun left_320_6286 () Int)
(declare-fun hr_6345 () Int)
(declare-fun left_318_6269 () Int)
(declare-fun p_6013 () Int)
(declare-fun right_317_6262 () Int)
(declare-fun m_6194 () Int)
(declare-fun n_6195 () Int)
(declare-fun m_6034 () Int)
(declare-fun m_6021 () Int)
(declare-fun n_5951 () Int)
(declare-fun m_5950 () Int)
(declare-fun right_289_5931 () Int)
(declare-fun q_5426 () Int)
(declare-fun n1_5930 () Int)
(declare-fun flted_220_5929 () Int)
(declare-fun n_5916 () Int)
(declare-fun m_5915 () Int)
(declare-fun x () Int)
(declare-fun a () Int)
(declare-fun v_bool_226_2439_primed () Int)
(declare-fun height_5421 () Int)
(declare-fun n () Int)
(declare-fun height2_5428 () Int)
(declare-fun height1_5425 () Int)
(declare-fun m () Int)
(declare-fun size2_5427 () Int)
(declare-fun size1_5424 () Int)
(declare-fun a_primed () Int)
(declare-fun v_bool_230_2438_primed () Int)
(declare-fun v_bool_290_2437_primed () Int)
(declare-fun height_6011 () Int)
(declare-fun n_5939 () Int)
(declare-fun height2_6018 () Int)
(declare-fun height1_6015 () Int)
(declare-fun m_5938 () Int)
(declare-fun size2_6017 () Int)
(declare-fun size1_6014 () Int)
(declare-fun n_6022 () Int)
(declare-fun n_6035 () Int)
(declare-fun v_bool_293_2425_primed () Int)
(declare-fun v_bool_313_2424_primed () Int)
(declare-fun height_6250 () Int)
(declare-fun n_6176 () Int)
(declare-fun height2_6257 () Int)
(declare-fun height1_6254 () Int)
(declare-fun m_6175 () Int)
(declare-fun size2_6256 () Int)
(declare-fun size1_6253 () Int)
(declare-fun Anon_6364 () Int)
(declare-fun Anon_5422 () Int)
(declare-fun p_6365 () Int)
(declare-fun p_5423 () Int)
(declare-fun q_6368 () Int)
(declare-fun p_6252 () Int)
(declare-fun m_6308 () Int)
(declare-fun n_6309 () Int)
(declare-fun m_6274 () Int)
(declare-fun n_6275 () Int)
(declare-fun h_6350 () Int)
(declare-fun height1_6367 () Int)
(declare-fun height2_6370 () Int)
(declare-fun size2_6369 () Int)
(declare-fun size1_6366 () Int)
(declare-fun Anon_6420 () Int)
(declare-fun Anon_6012 () Int)
(declare-fun p_6421 () Int)
(declare-fun q_6255 () Int)
(declare-fun q_6424 () Int)
(declare-fun q_6016 () Int)
(declare-fun m_6291 () Int)
(declare-fun n_6292 () Int)
(declare-fun m_6336 () Int)
(declare-fun n_6337 () Int)
(declare-fun h_6487 () Int)
(declare-fun height1_6423 () Int)
(declare-fun height2_6426 () Int)
(declare-fun size2_6425 () Int)
(declare-fun size1_6422 () Int)
(declare-fun Anon_6838 () Int)
(declare-fun Anon_6251 () Int)
(declare-fun p_6839 () Int)
(declare-fun x_primed () Int)
(declare-fun q_6842 () Int)
(declare-fun v_node_289_5935 () Int)
(declare-fun size1_6840 () Int)
(declare-fun m_6360 () Int)
(declare-fun n_6361 () Int)
(declare-fun size2_6843 () Int)
(declare-fun m_6416 () Int)
(declare-fun n_6417 () Int)
(declare-fun h_6835 () Int)
(declare-fun height1_6841 () Int)
(declare-fun height2_6844 () Int)
;Relations declarations
;Axioms assertions
;Antecedent
(assert (= res p_6013))
(assert (= height_335_6497 height_6250))
(assert (= h_6835 (+ 1 h_6493)))
(assert (or (and (= h_6493 n_6361) (>= n_6361 n_6417)) (and (= h_6493 n_6417) (< n_6361 n_6417))))
(assert (<= 0 n_6417))
(assert (<= 0 m_6416))
(assert (> v_node_289_5935 0))
(assert (<= 0 n_6292))
(assert (<= 0 m_6291))
(assert (<= 0 n_6337))
(assert (<= 0 m_6336))
(assert (<= 0 n_6361))
(assert (<= 0 m_6360))
(assert (> x_primed 0))
(assert (<= 0 n_6309))
(assert (<= 0 m_6308))
(assert (<= 0 n_6275))
(assert (<= 0 m_6274))
(assert (= height_332_6359 height_6011))
(assert (= h_6487 (+ 1 h_6356)))
(assert (or (and (= h_6356 n_6292) (>= n_6292 n_6337)) (and (= h_6356 n_6337) (< n_6292 n_6337))))
(assert (<= 0 n_6195))
(assert (<= 0 m_6194))
(assert (= n_6337 n_6195))
(assert (= m_6336 m_6194))
(assert (= height_327_6331 height_5421))
(assert (= h_6350 (+ 1 h_6328)))
(assert (or (and (= h_6328 n_6309) (>= n_6309 hr_6345)) (and (= h_6328 hr_6345) (< n_6309 hr_6345))))
(assert (<= 0 n_5951))
(assert (<= 0 m_5950))
(assert (= n_6309 n_5951))
(assert (= m_6308 m_5950))
(assert (= right_322_6303 q_6255))
(assert (<= 0 height2_6257))
(assert (<= 0 size2_6256))
(assert (= n_6292 height2_6257))
(assert (= m_6291 size2_6256))
(assert (= left_320_6286 p_6252))
(assert (= hr_6345 n_6275))
(assert (<= 0 height1_6254))
(assert (<= 0 size1_6253))
(assert (= n_6275 height1_6254))
(assert (= m_6274 size1_6253))
(assert (= left_318_6269 p_6013))
(assert (= right_317_6262 v_node_289_5935))
(assert (<= 0 n_6022))
(assert (<= 0 m_6021))
(assert (= n_6195 n_6022))
(assert (= m_6194 m_6021))
(assert (= (+ n_6195 1) n_6176))
(assert (<= 0 n_6176))
(assert (<= 0 m_6175))
(assert (<= 0 n_6035))
(assert (<= 0 m_6034))
(assert (= n_6176 n_6035))
(assert (= m_6175 m_6034))
(assert (<= 0 height1_6015))
(assert (<= 0 size1_6014))
(assert (= n_6035 height1_6015))
(assert (= m_6034 size1_6014))
(assert (<= 0 height2_6018))
(assert (<= 0 size2_6017))
(assert (= n_6022 height2_6018))
(assert (= m_6021 size2_6017))
(assert (= (+ 2 n_5951) n_5939))
(assert (<= 0 height1_5425))
(assert (<= 0 size1_5424))
(assert (= n_5951 height1_5425))
(assert (= m_5950 size1_5424))
(assert (<= 0 n_5939))
(assert (<= 0 m_5938))
(assert (<= 0 n1_5930))
(assert (<= 0 flted_220_5929))
(assert (= n_5939 n1_5930))
(assert (= m_5938 flted_220_5929))
(assert (= right_289_5931 q_5426))
(assert (<= 0 n_5916))
(assert (<= 0 m_5915))
(assert (<= n1_5930 (+ 1 n_5916)))
(assert (<= n_5916 n1_5930))
(assert (= flted_220_5929 (+ 1 m_5915)))
(assert (<= 0 height2_5428))
(assert (<= 0 size2_5427))
(assert (= n_5916 height2_5428))
(assert (= m_5915 size2_5427))
(assert (= x_primed x))
(assert (= a_primed a))
(assert (not (> v_bool_226_2439_primed 0)))
(assert (= height_5421 n))
(assert (exists ((max_33 Int)) (and (= n (+ 1 max_33)) (or (and (= max_33 height1_5425) (>= height1_5425 height2_5428)) (and (= max_33 height2_5428) (< height1_5425 height2_5428))))))
(assert (<= height1_5425 (+ 1 height2_5428)))
(assert (<= height2_5428 (+ 1 height1_5425)))
(assert (= m (+ (+ size2_5427 1) size1_5424)))
(assert (< Anon_5422 a_primed))
(assert (not (> v_bool_230_2438_primed 0)))
(assert (> v_bool_290_2437_primed 0))
(assert (= height_6011 n_5939))
(assert (exists ((max_33 Int)) (and (= n_5939 (+ 1 max_33)) (or (and (= max_33 height1_6015) (>= height1_6015 height2_6018)) (and (= max_33 height2_6018) (< height1_6015 height2_6018))))))
(assert (<= height1_6015 (+ 1 height2_6018)))
(assert (<= height2_6018 (+ 1 height1_6015)))
(assert (= m_5938 (+ (+ size2_6017 1) size1_6014)))
(assert (<= n_6022 n_6035))
(assert (not (> v_bool_293_2425_primed 0)))
(assert (> v_bool_313_2424_primed 0))
(assert (= height_6250 n_6176))
(assert (exists ((max_33 Int)) (and (= n_6176 (+ 1 max_33)) (or (and (= max_33 height1_6254) (>= height1_6254 height2_6257)) (and (= max_33 height2_6257) (< height1_6254 height2_6257))))))
(assert (<= height1_6254 (+ 1 height2_6257)))
(assert (<= height2_6257 (+ 1 height1_6254)))
(assert (= m_6175 (+ (+ size2_6256 1) size1_6253)))
(assert (= Anon_6364 Anon_5422))
(assert (= p_6365 p_5423))
(assert (= q_6368 p_6252))
(assert (= size1_6366 m_6308))
(assert (= height1_6367 n_6309))
(assert (= size2_6369 m_6274))
(assert (= height2_6370 n_6275))
(assert (<= height1_6367 (+ 1 height2_6370)))
(assert (<= height2_6370 (+ 1 height1_6367)))
(assert (or (and (= h_6350 (+ height1_6367 1)) (<= height2_6370 height1_6367)) (and (= h_6350 (+ height2_6370 1)) (< height1_6367 height2_6370))))
(assert (= h_6350 n_6361))
(assert (exists ((max_33 Int)) (and (= n_6361 (+ 1 max_33)) (or (and (= max_33 height1_6367) (>= height1_6367 height2_6370)) (and (= max_33 height2_6370) (< height1_6367 height2_6370))))))
(assert (= m_6360 (+ (+ size2_6369 1) size1_6366)))
(assert (= Anon_6420 Anon_6012))
(assert (= p_6421 q_6255))
(assert (= q_6424 q_6016))
(assert (= size1_6422 m_6291))
(assert (= height1_6423 n_6292))
(assert (= size2_6425 m_6336))
(assert (= height2_6426 n_6337))
(assert (<= height1_6423 (+ 1 height2_6426)))
(assert (<= height2_6426 (+ 1 height1_6423)))
(assert (or (and (= h_6487 (+ height1_6423 1)) (<= height2_6426 height1_6423)) (and (= h_6487 (+ height2_6426 1)) (< height1_6423 height2_6426))))
(assert (= h_6487 n_6417))
(assert (exists ((max_33 Int)) (and (= n_6417 (+ 1 max_33)) (or (and (= max_33 height1_6423) (>= height1_6423 height2_6426)) (and (= max_33 height2_6426) (< height1_6423 height2_6426))))))
(assert (= m_6416 (+ (+ size2_6425 1) size1_6422)))
(assert (= Anon_6838 Anon_6251))
(assert (= p_6839 x_primed))
(assert (= q_6842 v_node_289_5935))
(assert (= size1_6840 m_6360))
(assert (= height1_6841 n_6361))
(assert (= size2_6843 m_6416))
(assert (= height2_6844 n_6417))
(assert (exists ((max_33 Int)) (and (= h_6835 (+ 1 max_33)) (or (and (= max_33 height1_6841) (>= height1_6841 height2_6844)) (and (= max_33 height2_6844) (< height1_6841 height2_6844))))))
;Negation of Consequence
(assert (not false))
(check-sat)